1188173
35 2 10541
2 27 15288
27 11 29799
11 8 17581
8 10 23085
10 21 5744
21 1 6578
1 7 18909
7 36 11794
36 6 22446
6 9 47658
9 29 83811
29 38 745
38 23 7449
23 25 11530
25 31 7859
31 34 37614
34 39 31546
39 30 6375
30 20 17244
20 37 17449
37 26 14546
26 33 15458
33 12 3967
12 32 37145
32 5 3290
5 28 53780
28 13 6411
13 15 84792
15 16 36816
16 17 43849
17 14 42391
14 3 30026
3 18 141413
18 40 18404
40 19 13572
19 4 26533
4 22 23621
22 24 45980
24 35 115134
